job_count = 36 ;
duration = [|17, 7|12, 3|4, 9|6, 3|16, 7|12, 6|13, 5|14, 4|7, 7|10, 2|7, 5|7, 6|15, 9|5, 8|10, 3|7, 3|2, 3|11, 8|9, 2|12, 6|11, 5|8, 1|16, 8|10, 5|17, 5|5, 1|8, 6|15, 2|6, 5|3, 4|2, 9|18, 1|19, 6|5, 2|3, 5|7, 3|] ;
machine_count = 2 ;
cost = [|11, 21|16, 29|16, 37|15, 20|15, 39|13, 36|19, 38|17, 38|16, 22|17, 25|12, 26|14, 27|15, 27|15, 37|15, 38|15, 38|13, 37|11, 36|19, 29|11, 21|11, 25|10, 26|15, 31|10, 35|16, 26|17, 30|15, 25|13, 28|19, 23|19, 36|10, 26|14, 21|10, 34|14, 29|14, 38|18, 36|] ;
deadline = [90, 90, 90, 90, 90, 90, 90, 90, 90, 90, 90, 90, 90, 90, 90, 90, 90, 90, 90, 90, 90, 90, 90, 90, 90, 90, 90, 90, 90, 90, 90, 90, 90, 90, 90, 90] ;
release = [0, 0, 0, 0, 0, 0, 0, 0, 0, 0, 0, 0, 0, 0, 0, 0, 0, 0, 0, 0, 0, 0, 0, 0, 0, 0, 0, 0, 0, 0, 0, 0, 0, 0, 0, 0] ;
resource = [|3, 3|4, 4|2, 2|7, 7|9, 9|5, 5|3, 3|5, 5|3, 3|6, 6|5, 5|8, 8|6, 6|3, 3|5, 5|6, 6|3, 3|6, 6|4, 4|8, 8|8, 8|4, 4|5, 5|2, 2|8, 8|1, 1|4, 4|3, 3|1, 1|4, 4|4, 4|3, 3|7, 7|5, 5|9, 9|6, 6|] ;
capacities = [10, 10] ;
